instances/shortest_path/discrete/shortest_path_6_5.lp
\ Model nohadani_6_5
\ LP format - for model browsing. Use MPS format to capture full model detail.
\ Signature: 0x9d6f60db6d04e09d
Minimize
  80.0812087820857 y[0,1] + 51.61395160225576 y[0,2]
   + 51.478150704935 y[0,3] + 56.04462507680822 y[0,4]
   + 67.42403132415029 y[0,5] + 80.0812087820857 y[1,0]
   + 35.90264614203248 y[1,2] + 64.8459713474939 y[1,5]
   + 51.61395160225576 y[2,0] + 35.90264614203248 y[2,1]
   + 79.81227975693966 y[2,3] + 70.21395872616783 y[2,5]
   + 51.478150704935 y[3,0] + 79.81227975693966 y[3,2]
   + 36.6742416417845 y[3,4] + 34.92849839314596 y[3,5]
   + 56.04462507680822 y[4,0] + 36.6742416417845 y[4,3]
   + 71.58910531638176 y[4,5] + 67.42403132415029 y[5,0]
   + 64.8459713474939 y[5,1] + 70.21395872616783 y[5,2]
   + 34.92849839314596 y[5,3] + 71.58910531638176 y[5,4] + x[0,1] + x[0,2]
   + x[0,3] + x[0,4] + x[0,5] + x[1,0] + x[1,2] + x[1,5] + x[2,0] + x[2,1]
   + x[2,3] + x[2,5] + x[3,0] + x[3,2] + x[3,4] + x[3,5] + x[4,0] + x[4,3]
   + x[4,5] + x[5,0] + x[5,1] + x[5,2] + x[5,3] + x[5,4]
   + 8.008120878208571 r[0,1] + 5.161395160225577 r[0,2]
   + 5.1478150704935 r[0,3] + 5.604462507680822 r[0,4]
   + 6.74240313241503 r[0,5] + 8.008120878208571 r[1,0]
   + 3.590264614203248 r[1,2] + 6.48459713474939 r[1,5]
   + 5.161395160225577 r[2,0] + 3.590264614203248 r[2,1]
   + 7.981227975693966 r[2,3] + 7.021395872616783 r[2,5]
   + 5.1478150704935 r[3,0] + 7.981227975693966 r[3,2]
   + 3.66742416417845 r[3,4] + 3.492849839314596 r[3,5]
   + 5.604462507680822 r[4,0] + 3.66742416417845 r[4,3]
   + 7.158910531638177 r[4,5] + 6.74240313241503 r[5,0]
   + 6.48459713474939 r[5,1] + 7.021395872616783 r[5,2]
   + 3.492849839314596 r[5,3] + 7.158910531638177 r[5,4]
Subject To
 flow_cons_inner_nodes[0]: - y[0,1] - y[0,2] - y[0,3] - y[0,4] - y[0,5]
   + y[1,0] + y[2,0] + y[3,0] + y[4,0] + y[5,0] = 0
 flow_cons_inner_nodes[2]: y[0,2] + y[1,2] - y[2,0] - y[2,1] - y[2,3]
   - y[2,5] + y[3,2] + y[5,2] = 0
 flow_cons_inner_nodes[3]: y[0,3] + y[2,3] - y[3,0] - y[3,2] - y[3,4]
   - y[3,5] + y[4,3] + y[5,3] = 0
 flow_cons_inner_nodes[5]: y[0,5] + y[1,5] + y[2,5] + y[3,5] + y[4,5]
   - y[5,0] - y[5,1] - y[5,2] - y[5,3] - y[5,4] = 0
 flow_cons_source: - y[0,1] + y[1,0] + y[1,2] + y[1,5] - y[2,1] - y[5,1]
   = 1
 flow_cons_target: y[0,4] + y[3,4] - y[4,0] - y[4,3] - y[4,5] + y[5,4] = 1
 primal_lower: 0.8293416841877725 x[0,1] + 3.705567510583729 x[0,2]
   + 0.3186965666525733 x[0,3] + 0.3229077833225179 x[0,4]
   + 1.1835872601294 x[0,5] + 4.033065812348981 x[1,0]
   + 1.9749950527887 x[1,2] + 1.055916925690117 x[1,5]
   + 0.3217395733671941 x[2,0] + 3.964859388715358 x[2,1]
   + 0.4973527024362436 x[2,3] + 1.938672189553303 x[2,5]
   + 4.146320078376585 x[3,0] + 0.9786089076632505 x[3,2]
   + 4.137244292489559 x[3,4] + 0.7889386806805281 x[3,5]
   + 2.502666713574181 x[4,0] + 3.222896840526464 x[4,3]
   + 3.935441376028876 x[4,5] + 4.1819575713588 x[5,0]
   + 3.1435844082956 x[5,1] + 2.291381670443056 x[5,2]
   + 1.938045005183469 x[5,3] + 3.762796873118047 x[5,4] + 17 u[0,1]
   + 65 u[0,2] + 83 u[0,3] + 28 u[0,4] + 97 u[0,5] + 27 u[1,0] + 62 u[1,2]
   + 73 u[1,5] + 46 u[2,0] + 27 u[2,1] + 33 u[2,3] + 4 u[2,5] + 65 u[3,0]
   + 61 u[3,2] + 2 u[3,4] + 70 u[3,5] + 26 u[4,0] + 13 u[4,3] + 54 u[4,5]
   + 43 u[5,0] + 2 u[5,1] + 85 u[5,2] + 93 u[5,3] + 80 u[5,4] <= 105
 mccormick1[0,1]: - u[0,1] + r[0,1] <= 0
 mccormick1[0,2]: - u[0,2] + r[0,2] <= 0
 mccormick1[0,3]: - u[0,3] + r[0,3] <= 0
 mccormick1[0,4]: - u[0,4] + r[0,4] <= 0
 mccormick1[0,5]: - u[0,5] + r[0,5] <= 0
 mccormick1[1,0]: - u[1,0] + r[1,0] <= 0
 mccormick1[1,2]: - u[1,2] + r[1,2] <= 0
 mccormick1[1,5]: - u[1,5] + r[1,5] <= 0
 mccormick1[2,0]: - u[2,0] + r[2,0] <= 0
 mccormick1[2,1]: - u[2,1] + r[2,1] <= 0
 mccormick1[2,3]: - u[2,3] + r[2,3] <= 0
 mccormick1[2,5]: - u[2,5] + r[2,5] <= 0
 mccormick1[3,0]: - u[3,0] + r[3,0] <= 0
 mccormick1[3,2]: - u[3,2] + r[3,2] <= 0
 mccormick1[3,4]: - u[3,4] + r[3,4] <= 0
 mccormick1[3,5]: - u[3,5] + r[3,5] <= 0
 mccormick1[4,0]: - u[4,0] + r[4,0] <= 0
 mccormick1[4,3]: - u[4,3] + r[4,3] <= 0
 mccormick1[4,5]: - u[4,5] + r[4,5] <= 0
 mccormick1[5,0]: - u[5,0] + r[5,0] <= 0
 mccormick1[5,1]: - u[5,1] + r[5,1] <= 0
 mccormick1[5,2]: - u[5,2] + r[5,2] <= 0
 mccormick1[5,3]: - u[5,3] + r[5,3] <= 0
 mccormick1[5,4]: - u[5,4] + r[5,4] <= 0
 mccormick2[0,1]: - y[0,1] + r[0,1] <= 0
 mccormick2[0,2]: - y[0,2] + r[0,2] <= 0
 mccormick2[0,3]: - y[0,3] + r[0,3] <= 0
 mccormick2[0,4]: - y[0,4] + r[0,4] <= 0
 mccormick2[0,5]: - y[0,5] + r[0,5] <= 0
 mccormick2[1,0]: - y[1,0] + r[1,0] <= 0
 mccormick2[1,2]: - y[1,2] + r[1,2] <= 0
 mccormick2[1,5]: - y[1,5] + r[1,5] <= 0
 mccormick2[2,0]: - y[2,0] + r[2,0] <= 0
 mccormick2[2,1]: - y[2,1] + r[2,1] <= 0
 mccormick2[2,3]: - y[2,3] + r[2,3] <= 0
 mccormick2[2,5]: - y[2,5] + r[2,5] <= 0
 mccormick2[3,0]: - y[3,0] + r[3,0] <= 0
 mccormick2[3,2]: - y[3,2] + r[3,2] <= 0
 mccormick2[3,4]: - y[3,4] + r[3,4] <= 0
 mccormick2[3,5]: - y[3,5] + r[3,5] <= 0
 mccormick2[4,0]: - y[4,0] + r[4,0] <= 0
 mccormick2[4,3]: - y[4,3] + r[4,3] <= 0
 mccormick2[4,5]: - y[4,5] + r[4,5] <= 0
 mccormick2[5,0]: - y[5,0] + r[5,0] <= 0
 mccormick2[5,1]: - y[5,1] + r[5,1] <= 0
 mccormick2[5,2]: - y[5,2] + r[5,2] <= 0
 mccormick2[5,3]: - y[5,3] + r[5,3] <= 0
 mccormick2[5,4]: - y[5,4] + r[5,4] <= 0
 mccormick3[0,1]: - y[0,1] - u[0,1] + r[0,1] >= -1
 mccormick3[0,2]: - y[0,2] - u[0,2] + r[0,2] >= -1
 mccormick3[0,3]: - y[0,3] - u[0,3] + r[0,3] >= -1
 mccormick3[0,4]: - y[0,4] - u[0,4] + r[0,4] >= -1
 mccormick3[0,5]: - y[0,5] - u[0,5] + r[0,5] >= -1
 mccormick3[1,0]: - y[1,0] - u[1,0] + r[1,0] >= -1
 mccormick3[1,2]: - y[1,2] - u[1,2] + r[1,2] >= -1
 mccormick3[1,5]: - y[1,5] - u[1,5] + r[1,5] >= -1
 mccormick3[2,0]: - y[2,0] - u[2,0] + r[2,0] >= -1
 mccormick3[2,1]: - y[2,1] - u[2,1] + r[2,1] >= -1
 mccormick3[2,3]: - y[2,3] - u[2,3] + r[2,3] >= -1
 mccormick3[2,5]: - y[2,5] - u[2,5] + r[2,5] >= -1
 mccormick3[3,0]: - y[3,0] - u[3,0] + r[3,0] >= -1
 mccormick3[3,2]: - y[3,2] - u[3,2] + r[3,2] >= -1
 mccormick3[3,4]: - y[3,4] - u[3,4] + r[3,4] >= -1
 mccormick3[3,5]: - y[3,5] - u[3,5] + r[3,5] >= -1
 mccormick3[4,0]: - y[4,0] - u[4,0] + r[4,0] >= -1
 mccormick3[4,3]: - y[4,3] - u[4,3] + r[4,3] >= -1
 mccormick3[4,5]: - y[4,5] - u[4,5] + r[4,5] >= -1
 mccormick3[5,0]: - y[5,0] - u[5,0] + r[5,0] >= -1
 mccormick3[5,1]: - y[5,1] - u[5,1] + r[5,1] >= -1
 mccormick3[5,2]: - y[5,2] - u[5,2] + r[5,2] >= -1
 mccormick3[5,3]: - y[5,3] - u[5,3] + r[5,3] >= -1
 mccormick3[5,4]: - y[5,4] - u[5,4] + r[5,4] >= -1
Bounds
Binaries
 y[0,1] y[0,2] y[0,3] y[0,4] y[0,5] y[1,0] y[1,2] y[1,5] y[2,0] y[2,1]
 y[2,3] y[2,5] y[3,0] y[3,2] y[3,4] y[3,5] y[4,0] y[4,3] y[4,5] y[5,0]
 y[5,1] y[5,2] y[5,3] y[5,4] x[0,1] x[0,2] x[0,3] x[0,4] x[0,5] x[1,0]
 x[1,2] x[1,5] x[2,0] x[2,1] x[2,3] x[2,5] x[3,0] x[3,2] x[3,4] x[3,5]
 x[4,0] x[4,3] x[4,5] x[5,0] x[5,1] x[5,2] x[5,3] x[5,4] u[0,1] u[0,2]
 u[0,3] u[0,4] u[0,5] u[1,0] u[1,2] u[1,5] u[2,0] u[2,1] u[2,3] u[2,5]
 u[3,0] u[3,2] u[3,4] u[3,5] u[4,0] u[4,3] u[4,5] u[5,0] u[5,1] u[5,2]
 u[5,3] u[5,4] r[0,1] r[0,2] r[0,3] r[0,4] r[0,5] r[1,0] r[1,2] r[1,5]
 r[2,0] r[2,1] r[2,3] r[2,5] r[3,0] r[3,2] r[3,4] r[3,5] r[4,0] r[4,3]
 r[4,5] r[5,0] r[5,1] r[5,2] r[5,3] r[5,4]
End
