instances/shortest_path/discrete/shortest_path_6_5.kp
72284
105

[0.8293416841877725 3.705567510583729 0.3186965666525733 0.3229077833225179 1.1835872601294 4.033065812348981 1.9749950527887 1.055916925690117 0.3217395733671941 3.9648593887153583 0.49735270243624363 1.938672189553303 4.146320078376585 0.9786089076632505 4.137244292489559 0.7889386806805281 2.502666713574181 3.2228968405264635 3.9354413760288764 4.1819575713588 3.1435844082955997 2.291381670443056 1.9380450051834688 3.762796873118047]

[17 65 83 28 97 27 62 73 46 27 33 4 65 61 2 70 26 13 54 43 2 85 93 80]
